(benchmark gametime
:status unknown
:logic QF_AUFBV
:extrafuns ((gtINDEX96  BitVec[32]))
:extrafuns ((gtFIELD__bitsForTID0__gtAGG____anonstruct_D_Work_4  Array[32:32]))
:extrafuns ((gtINDEX97  BitVec[32]))
:extrafuns ((gtAGG__rtDWork  BitVec[32]))
:extrafuns ((gtINDEX94  BitVec[32]))
:extrafuns ((gtINDEX95  BitVec[32]))
:extrafuns ((gtINDEX92  BitVec[32]))
:extrafuns ((gtINDEX93  BitVec[32]))
:extrafuns ((gtINDEX90  BitVec[32]))
:extrafuns ((gtINDEX91  BitVec[32]))
:extrafuns ((gtINDEX89  BitVec[32]))
:extrafuns ((gtINDEX88  BitVec[32]))
:extrafuns ((gtINDEX87  BitVec[32]))
:extrafuns ((gtINDEX86  BitVec[32]))
:extrafuns ((gtINDEX84  BitVec[32]))
:extrafuns ((gtINDEX85  BitVec[32]))
:extrafuns ((gtINDEX82  BitVec[32]))
:extrafuns ((gtINDEX83  BitVec[32]))
:extrafuns ((gtINDEX80  BitVec[32]))
:extrafuns ((gtINDEX81  BitVec[32]))
:extrafuns ((gtINDEX79  BitVec[32]))
:extrafuns ((gtINDEX77  BitVec[32]))
:extrafuns ((gtINDEX78  BitVec[32]))
:extrafuns ((gtINDEX75  BitVec[32]))
:extrafuns ((gtINDEX76  BitVec[32]))
:extrafuns ((gtINDEX73  BitVec[32]))
:extrafuns ((gtINDEX74  BitVec[32]))
:extrafuns ((gtINDEX71  BitVec[32]))
:extrafuns ((gtINDEX72  BitVec[32]))
:extrafuns ((gtINDEX70  BitVec[32]))
:extrafuns ((gtINDEX68  BitVec[32]))
:extrafuns ((gtINDEX69  BitVec[32]))
:extrafuns ((gtINDEX66  BitVec[32]))
:extrafuns ((gtINDEX67  BitVec[32]))
:extrafuns ((gtINDEX64  BitVec[32]))
:extrafuns ((gtINDEX65  BitVec[32]))
:extrafuns ((gtINDEX62  BitVec[32]))
:extrafuns ((gtINDEX63  BitVec[32]))
:extrafuns ((gtINDEX60  BitVec[32]))
:extrafuns ((gtINDEX61  BitVec[32]))
:extrafuns ((gtINDEX58  BitVec[32]))
:extrafuns ((gtINDEX59  BitVec[32]))
:extrafuns ((gtINDEX56  BitVec[32]))
:extrafuns ((gtINDEX57  BitVec[32]))
:extrafuns ((gtINDEX54  BitVec[32]))
:extrafuns ((gtINDEX55  BitVec[32]))
:extrafuns ((gtINDEX52  BitVec[32]))
:extrafuns ((gtINDEX53  BitVec[32]))
:extrafuns ((gtINDEX50  BitVec[32]))
:extrafuns ((gtINDEX51  BitVec[32]))
:extrafuns ((gtINDEX48  BitVec[32]))
:extrafuns ((gtINDEX49  BitVec[32]))
:extrafuns ((gtINDEX46  BitVec[32]))
:extrafuns ((gtINDEX47  BitVec[32]))
:extrafuns ((gtINDEX45  BitVec[32]))
:extrafuns ((gtINDEX44  BitVec[32]))
:extrafuns ((gtINDEX43  BitVec[32]))
:extrafuns ((gtINDEX42  BitVec[32]))
:extrafuns ((gtINDEX41  BitVec[32]))
:extrafuns ((gtINDEX40  BitVec[32]))
:extrafuns ((gtINDEX38  BitVec[32]))
:extrafuns ((gtINDEX39  BitVec[32]))
:extrafuns ((gtINDEX36  BitVec[32]))
:extrafuns ((gtINDEX37  BitVec[32]))
:extrafuns ((gtINDEX34  BitVec[32]))
:extrafuns ((gtINDEX35  BitVec[32]))
:extrafuns ((gtINDEX33  BitVec[32]))
:extrafuns ((gtINDEX31  BitVec[32]))
:extrafuns ((gtINDEX32  BitVec[32]))
:extrafuns ((gtINDEX29  BitVec[32]))
:extrafuns ((gtINDEX30  BitVec[32]))
:extrafuns ((gtINDEX27  BitVec[32]))
:extrafuns ((gtINDEX28  BitVec[32]))
:extrafuns ((gtINDEX25  BitVec[32]))
:extrafuns ((gtINDEX26  BitVec[32]))
:extrafuns ((gtINDEX24  BitVec[32]))
:extrafuns ((gtINDEX22  BitVec[32]))
:extrafuns ((gtINDEX23  BitVec[32]))
:extrafuns ((gtINDEX20  BitVec[32]))
:extrafuns ((gtINDEX21  BitVec[32]))
:extrafuns ((gtINDEX18  BitVec[32]))
:extrafuns ((gtINDEX19  BitVec[32]))
:extrafuns ((gtINDEX16  BitVec[32]))
:extrafuns ((gtINDEX17  BitVec[32]))
:extrafuns ((gtINDEX14  BitVec[32]))
:extrafuns ((gtINDEX15  BitVec[32]))
:extrafuns ((gtINDEX12  BitVec[32]))
:extrafuns ((gtINDEX13  BitVec[32]))
:extrafuns ((gtINDEX10  BitVec[32]))
:extrafuns ((gtINDEX11  BitVec[32]))
:extrafuns ((gtINDEX8  BitVec[32]))
:extrafuns ((gtINDEX9  BitVec[32]))
:extrafuns ((gtINDEX6  BitVec[32]))
:extrafuns ((gtINDEX7  BitVec[32]))
:extrafuns ((gtINDEX4  BitVec[32]))
:extrafuns ((gtINDEX5  BitVec[32]))
:extrafuns ((gtINDEX2  BitVec[32]))
:extrafuns ((gtINDEX3  BitVec[32]))
:extrafuns ((gtINDEX0  BitVec[32]))
:extrafuns ((gtINDEX1  BitVec[32]))
:extrafuns ((gtFIELD__is_Eng__gtAGG____anonstruct_bitsForTID0_5_1_  Array[32:1]))
:extrafuns ((gtFIELD__is_Eng__gtAGG____anonstruct_bitsForTID0_5_2_  Array[32:1]))
:extrafuns ((sf_previousEvent_1_  BitVec[32]))
:extrafuns ((sfEvent__2_  BitVec[32]))
:extrafuns ((gtFIELD__is_Eng__gtAGG____anonstruct_bitsForTID0_5  Array[32:1]))
:extrafuns ((gtFIELD__sent__gtAGG____anonstruct_D_Work_4_1_  Array[32:32]))
:extrafuns ((gtFIELD__sent__gtAGG____anonstruct_D_Work_4_2_  Array[32:32]))
:extrafuns ((gtFIELD__is_active_Eng__gtAGG____anonstruct_bitsForTID0_5  Array[32:1]))
:extrafuns ((gtFIELD__is_active_PURI__gtAGG____anonstruct_bitsForTID0_5  Array[32:1]))
:extrafuns ((gtFIELD__is_PVRP__gtAGG____anonstruct_bitsForTID0_5  Array[32:2]))
:extrafuns ((gtFIELD__is_active_PVRP__gtAGG____anonstruct_bitsForTID0_5  Array[32:1]))
:extrafuns ((gtFIELD__is_PPVARP__gtAGG____anonstruct_bitsForTID0_5  Array[32:2]))
:extrafuns ((gtFIELD__is_active_PPVARP__gtAGG____anonstruct_bitsForTID0_5  Array[32:1]))
:extrafuns ((sfEvent__1_  BitVec[32]))
:extrafuns ((gtFIELD__is_PLRI__gtAGG____anonstruct_bitsForTID0_5  Array[32:2]))
:extrafuns ((gtFIELD__is_active_PLRI__gtAGG____anonstruct_bitsForTID0_5  Array[32:1]))
:extrafuns ((gtFIELD__is_PAVI__gtAGG____anonstruct_bitsForTID0_5_1_  Array[32:3]))
:extrafuns ((gtFIELD__is_PAVI__gtAGG____anonstruct_bitsForTID0_5_2_  Array[32:3]))
:extrafuns ((gtFIELD__is_active_PAVI__gtAGG____anonstruct_bitsForTID0_5  Array[32:1]))
:extrafuns ((sfEvent_  BitVec[32]))
:extrafuns ((gtFIELD__sent__gtAGG____anonstruct_D_Work_4  Array[32:32]))
:extrafuns ((gtFIELD__is_PAVI__gtAGG____anonstruct_bitsForTID0_5  Array[32:3]))
:extrapreds ((constraint162 ))
:extrapreds ((constraint161 ))
:extrapreds ((constraint160 ))
:extrapreds ((constraint159 ))
:extrapreds ((constraint158 ))
:extrapreds ((constraint157 ))
:extrapreds ((constraint156 ))
:extrapreds ((constraint155 ))
:extrapreds ((constraint154 ))
:extrapreds ((constraint153 ))
:extrapreds ((constraint152 ))
:extrapreds ((constraint151 ))
:extrapreds ((constraint150 ))
:extrapreds ((constraint149 ))
:extrapreds ((constraint148 ))
:extrapreds ((constraint147 ))
:extrapreds ((constraint146 ))
:extrapreds ((constraint145 ))
:extrapreds ((constraint144 ))
:extrapreds ((constraint143 ))
:extrapreds ((constraint142 ))
:extrapreds ((constraint141 ))
:extrapreds ((constraint140 ))
:extrapreds ((constraint139 ))
:extrapreds ((constraint138 ))
:extrapreds ((constraint137 ))
:extrapreds ((constraint136 ))
:extrapreds ((constraint135 ))
:extrapreds ((constraint134 ))
:extrapreds ((constraint133 ))
:extrapreds ((constraint132 ))
:extrapreds ((constraint131 ))
:extrapreds ((constraint130 ))
:extrapreds ((constraint129 ))
:extrapreds ((constraint128 ))
:extrapreds ((constraint127 ))
:extrapreds ((constraint126 ))
:extrapreds ((constraint125 ))
:extrapreds ((constraint124 ))
:extrapreds ((constraint123 ))
:extrapreds ((constraint122 ))
:extrapreds ((constraint121 ))
:extrapreds ((constraint120 ))
:extrapreds ((constraint119 ))
:extrapreds ((constraint118 ))
:extrapreds ((constraint117 ))
:extrapreds ((constraint116 ))
:extrapreds ((constraint115 ))
:extrapreds ((constraint114 ))
:extrapreds ((constraint113 ))
:extrapreds ((constraint112 ))
:extrapreds ((constraint111 ))
:extrapreds ((constraint110 ))
:extrapreds ((constraint109 ))
:extrapreds ((constraint108 ))
:extrapreds ((constraint107 ))
:extrapreds ((constraint106 ))
:extrapreds ((constraint105 ))
:extrapreds ((constraint104 ))
:extrapreds ((constraint103 ))
:extrapreds ((constraint102 ))
:extrapreds ((constraint101 ))
:extrapreds ((constraint100 ))
:extrapreds ((constraint99 ))
:extrapreds ((constraint98 ))
:extrapreds ((constraint97 ))
:extrapreds ((constraint96 ))
:extrapreds ((constraint95 ))
:extrapreds ((constraint94 ))
:extrapreds ((constraint93 ))
:extrapreds ((constraint92 ))
:extrapreds ((constraint91 ))
:extrapreds ((constraint90 ))
:extrapreds ((constraint89 ))
:extrapreds ((constraint88 ))
:extrapreds ((constraint87 ))
:extrapreds ((constraint86 ))
:extrapreds ((constraint85 ))
:extrapreds ((constraint84 ))
:extrapreds ((constraint83 ))
:extrapreds ((constraint82 ))
:extrapreds ((constraint81 ))
:extrapreds ((constraint80 ))
:extrapreds ((constraint79 ))
:extrapreds ((constraint78 ))
:extrapreds ((constraint77 ))
:extrapreds ((constraint76 ))
:extrapreds ((constraint75 ))
:extrapreds ((constraint74 ))
:extrapreds ((constraint73 ))
:extrapreds ((constraint72 ))
:extrapreds ((constraint71 ))
:extrapreds ((constraint70 ))
:extrapreds ((constraint69 ))
:extrapreds ((constraint68 ))
:extrapreds ((constraint67 ))
:extrapreds ((constraint66 ))
:extrapreds ((constraint65 ))
:extrapreds ((constraint64 ))
:extrapreds ((constraint63 ))
:extrapreds ((constraint62 ))
:extrapreds ((constraint61 ))
:extrapreds ((constraint60 ))
:extrapreds ((constraint59 ))
:extrapreds ((constraint58 ))
:extrapreds ((constraint57 ))
:extrapreds ((constraint56 ))
:extrapreds ((constraint55 ))
:extrapreds ((constraint54 ))
:extrapreds ((constraint53 ))
:extrapreds ((constraint52 ))
:extrapreds ((constraint51 ))
:extrapreds ((constraint50 ))
:extrapreds ((constraint49 ))
:extrapreds ((constraint48 ))
:extrapreds ((constraint47 ))
:extrapreds ((constraint46 ))
:extrapreds ((constraint45 ))
:extrapreds ((constraint44 ))
:extrapreds ((constraint43 ))
:extrapreds ((constraint42 ))
:extrapreds ((constraint41 ))
:extrapreds ((constraint40 ))
:extrapreds ((constraint39 ))
:extrapreds ((constraint38 ))
:extrapreds ((constraint37 ))
:extrapreds ((constraint36 ))
:extrapreds ((constraint35 ))
:extrapreds ((constraint34 ))
:extrapreds ((constraint33 ))
:extrapreds ((constraint32 ))
:extrapreds ((constraint31 ))
:extrapreds ((constraint30 ))
:extrapreds ((constraint29 ))
:extrapreds ((constraint28 ))
:extrapreds ((constraint27 ))
:extrapreds ((constraint26 ))
:extrapreds ((constraint25 ))
:extrapreds ((constraint24 ))
:extrapreds ((constraint23 ))
:extrapreds ((constraint22 ))
:extrapreds ((constraint21 ))
:extrapreds ((constraint20 ))
:extrapreds ((constraint19 ))
:extrapreds ((constraint18 ))
:extrapreds ((constraint17 ))
:extrapreds ((constraint16 ))
:extrapreds ((constraint15 ))
:extrapreds ((constraint14 ))
:extrapreds ((constraint13 ))
:extrapreds ((constraint12 ))
:extrapreds ((constraint11 ))
:extrapreds ((constraint10 ))
:extrapreds ((constraint9 ))
:extrapreds ((constraint8 ))
:extrapreds ((constraint7 ))
:extrapreds ((constraint6 ))
:extrapreds ((constraint5 ))
:extrapreds ((constraint4 ))
:extrapreds ((constraint3 ))
:extrapreds ((constraint2 ))
:extrapreds ((constraint1 ))
:extrapreds ((constraint0 ))
:formula
(flet ($x828 (and constraint0 constraint1 constraint2 constraint3 constraint4 constraint5 constraint6 constraint7 constraint8 constraint9 constraint10 constraint11 constraint12 constraint13 constraint14 constraint15 constraint16 constraint17 constraint18 constraint19 constraint20 constraint21 constraint22 constraint23 constraint24 constraint25 constraint26 constraint27 constraint28 constraint29 constraint30 constraint31 constraint32 constraint33 constraint34 constraint35 constraint36 constraint37 constraint38 constraint39 constraint40 constraint41 constraint42 constraint43 constraint44 constraint45 constraint46 constraint47 constraint48 constraint49 constraint50 constraint51 constraint52 constraint53 constraint54 constraint55 constraint56 constraint57 constraint58 constraint59 constraint60 constraint61 constraint62 constraint63 constraint64 constraint65 constraint66 constraint67 constraint68 constraint69 constraint70 constraint71 constraint72 constraint73 constraint74 constraint75 constraint76 constraint77 constraint78 constraint79 constraint80 constraint81 constraint82 constraint83 constraint84 constraint85 constraint86 constraint87 constraint88 constraint89 constraint90 constraint91 constraint92 constraint93 constraint94 constraint95 constraint96 constraint97 constraint98 constraint99 constraint100 constraint101 constraint102 constraint103 constraint104 constraint105 constraint106 constraint107 constraint108 constraint109 constraint110 constraint111 constraint112 constraint113 constraint114 constraint115 constraint116 constraint117 constraint118 constraint119 constraint120 constraint121 constraint122 constraint123 constraint124 constraint125 constraint126 constraint127 constraint128 constraint129 constraint130 constraint131 constraint132 constraint133 constraint134 constraint135 constraint136 constraint137 constraint138 constraint139 constraint140 constraint141 constraint142 constraint143 constraint144 constraint145 constraint146 constraint147 constraint148 constraint149 constraint150 constraint151 constraint152 constraint153 constraint154 constraint155 constraint156 constraint157 constraint158 constraint159 constraint160 constraint161 constraint162))
(flet ($x500 (= gtINDEX97 (select gtFIELD__bitsForTID0__gtAGG____anonstruct_D_Work_4 gtINDEX96)))
(flet ($x496 (= gtINDEX95 (select gtFIELD__bitsForTID0__gtAGG____anonstruct_D_Work_4 gtINDEX94)))
(flet ($x492 (= gtINDEX93 (select gtFIELD__bitsForTID0__gtAGG____anonstruct_D_Work_4 gtINDEX92)))
(flet ($x488 (= gtINDEX91 (select gtFIELD__bitsForTID0__gtAGG____anonstruct_D_Work_4 gtINDEX90)))
(flet ($x480 (= gtINDEX85 (select gtFIELD__bitsForTID0__gtAGG____anonstruct_D_Work_4 gtINDEX84)))
(flet ($x476 (= gtINDEX83 (select gtFIELD__bitsForTID0__gtAGG____anonstruct_D_Work_4 gtINDEX82)))
(flet ($x472 (= gtINDEX81 (select gtFIELD__bitsForTID0__gtAGG____anonstruct_D_Work_4 gtINDEX80)))
(flet ($x467 (= gtINDEX78 (select gtFIELD__bitsForTID0__gtAGG____anonstruct_D_Work_4 gtINDEX77)))
(flet ($x463 (= gtINDEX76 (select gtFIELD__bitsForTID0__gtAGG____anonstruct_D_Work_4 gtINDEX75)))
(flet ($x459 (= gtINDEX74 (select gtFIELD__bitsForTID0__gtAGG____anonstruct_D_Work_4 gtINDEX73)))
(flet ($x455 (= gtINDEX72 (select gtFIELD__bitsForTID0__gtAGG____anonstruct_D_Work_4 gtINDEX71)))
(flet ($x450 (= gtINDEX69 (select gtFIELD__bitsForTID0__gtAGG____anonstruct_D_Work_4 gtINDEX68)))
(flet ($x446 (= gtINDEX67 (select gtFIELD__bitsForTID0__gtAGG____anonstruct_D_Work_4 gtINDEX66)))
(flet ($x442 (= gtINDEX65 (select gtFIELD__bitsForTID0__gtAGG____anonstruct_D_Work_4 gtINDEX64)))
(flet ($x438 (= gtINDEX63 (select gtFIELD__bitsForTID0__gtAGG____anonstruct_D_Work_4 gtINDEX62)))
(flet ($x434 (= gtINDEX61 (select gtFIELD__bitsForTID0__gtAGG____anonstruct_D_Work_4 gtINDEX60)))
(flet ($x430 (= gtINDEX59 (select gtFIELD__bitsForTID0__gtAGG____anonstruct_D_Work_4 gtINDEX58)))
(flet ($x426 (= gtINDEX57 (select gtFIELD__bitsForTID0__gtAGG____anonstruct_D_Work_4 gtINDEX56)))
(flet ($x422 (= gtINDEX55 (select gtFIELD__bitsForTID0__gtAGG____anonstruct_D_Work_4 gtINDEX54)))
(flet ($x418 (= gtINDEX53 (select gtFIELD__bitsForTID0__gtAGG____anonstruct_D_Work_4 gtINDEX52)))
(flet ($x414 (= gtINDEX51 (select gtFIELD__bitsForTID0__gtAGG____anonstruct_D_Work_4 gtINDEX50)))
(flet ($x410 (= gtINDEX49 (select gtFIELD__bitsForTID0__gtAGG____anonstruct_D_Work_4 gtINDEX48)))
(flet ($x406 (= gtINDEX47 (select gtFIELD__bitsForTID0__gtAGG____anonstruct_D_Work_4 gtINDEX46)))
(flet ($x396 (= gtINDEX39 (select gtFIELD__bitsForTID0__gtAGG____anonstruct_D_Work_4 gtINDEX38)))
(flet ($x392 (= gtINDEX37 (select gtFIELD__bitsForTID0__gtAGG____anonstruct_D_Work_4 gtINDEX36)))
(flet ($x388 (= gtINDEX35 (select gtFIELD__bitsForTID0__gtAGG____anonstruct_D_Work_4 gtINDEX34)))
(flet ($x383 (= gtINDEX32 (select gtFIELD__bitsForTID0__gtAGG____anonstruct_D_Work_4 gtINDEX31)))
(flet ($x379 (= gtINDEX30 (select gtFIELD__bitsForTID0__gtAGG____anonstruct_D_Work_4 gtINDEX29)))
(flet ($x375 (= gtINDEX28 (select gtFIELD__bitsForTID0__gtAGG____anonstruct_D_Work_4 gtINDEX27)))
(flet ($x371 (= gtINDEX26 (select gtFIELD__bitsForTID0__gtAGG____anonstruct_D_Work_4 gtINDEX25)))
(flet ($x366 (= gtINDEX23 (select gtFIELD__bitsForTID0__gtAGG____anonstruct_D_Work_4 gtINDEX22)))
(flet ($x362 (= gtINDEX21 (select gtFIELD__bitsForTID0__gtAGG____anonstruct_D_Work_4 gtINDEX20)))
(flet ($x358 (= gtINDEX19 (select gtFIELD__bitsForTID0__gtAGG____anonstruct_D_Work_4 gtINDEX18)))
(flet ($x354 (= gtINDEX17 (select gtFIELD__bitsForTID0__gtAGG____anonstruct_D_Work_4 gtINDEX16)))
(flet ($x350 (= gtINDEX15 (select gtFIELD__bitsForTID0__gtAGG____anonstruct_D_Work_4 gtINDEX14)))
(flet ($x346 (= gtINDEX13 (select gtFIELD__bitsForTID0__gtAGG____anonstruct_D_Work_4 gtINDEX12)))
(flet ($x342 (= gtINDEX11 (select gtFIELD__bitsForTID0__gtAGG____anonstruct_D_Work_4 gtINDEX10)))
(flet ($x338 (= gtINDEX9 (select gtFIELD__bitsForTID0__gtAGG____anonstruct_D_Work_4 gtINDEX8)))
(flet ($x334 (= gtINDEX7 (select gtFIELD__bitsForTID0__gtAGG____anonstruct_D_Work_4 gtINDEX6)))
(flet ($x330 (= gtINDEX5 (select gtFIELD__bitsForTID0__gtAGG____anonstruct_D_Work_4 gtINDEX4)))
(flet ($x326 (= gtINDEX3 (select gtFIELD__bitsForTID0__gtAGG____anonstruct_D_Work_4 gtINDEX2)))
(flet ($x322 (= gtINDEX1 (select gtFIELD__bitsForTID0__gtAGG____anonstruct_D_Work_4 gtINDEX0)))
(let (?x306 (extract[0:0] bv1[32]))
(let (?x316 (store gtFIELD__is_Eng__gtAGG____anonstruct_bitsForTID0_5_1_ gtINDEX97 ?x306))
(flet ($x630 (iff constraint64 (= gtFIELD__is_Eng__gtAGG____anonstruct_bitsForTID0_5_2_ ?x316)))
(let (?x312 (select gtFIELD__is_Eng__gtAGG____anonstruct_bitsForTID0_5_1_ gtINDEX95))
(let (?x307 (store gtFIELD__is_Eng__gtAGG____anonstruct_bitsForTID0_5 gtINDEX93 ?x306))
(flet ($x624 (iff constraint61 (= gtFIELD__is_Eng__gtAGG____anonstruct_bitsForTID0_5_1_ ?x307)))
(let (?x303 (zero_extend[31] (select gtFIELD__is_Eng__gtAGG____anonstruct_bitsForTID0_5 gtINDEX91)))
(let (?x299 (store gtFIELD__sent__gtAGG____anonstruct_D_Work_4_1_ gtINDEX89 bv0[32]))
(flet ($x620 (iff constraint59 (= gtFIELD__sent__gtAGG____anonstruct_D_Work_4_2_ ?x299)))
(let (?x166 (bvmul bv4294967295[32] bv1[32]))
(flet ($x297 (= (select gtFIELD__sent__gtAGG____anonstruct_D_Work_4_1_ gtINDEX88) ?x166))
(flet ($x293 (= (select gtFIELD__sent__gtAGG____anonstruct_D_Work_4_1_ gtINDEX87) bv9[32]))
(flet ($x289 (= (select gtFIELD__sent__gtAGG____anonstruct_D_Work_4_1_ gtINDEX86) bv4[32]))
(let (?x285 (zero_extend[31] (select gtFIELD__is_Eng__gtAGG____anonstruct_bitsForTID0_5 gtINDEX85)))
(let (?x279 (select gtFIELD__is_active_Eng__gtAGG____anonstruct_bitsForTID0_5 gtINDEX83))
(let (?x273 (select gtFIELD__is_active_PURI__gtAGG____anonstruct_bitsForTID0_5 gtINDEX81))
(flet ($x270 (= (select gtFIELD__sent__gtAGG____anonstruct_D_Work_4_1_ gtINDEX79) bv0[32]))
(let (?x265 (select gtFIELD__is_PVRP__gtAGG____anonstruct_bitsForTID0_5 gtINDEX78))
(let (?x260 (select gtFIELD__is_PVRP__gtAGG____anonstruct_bitsForTID0_5 gtINDEX76))
(let (?x255 (select gtFIELD__is_PVRP__gtAGG____anonstruct_bitsForTID0_5 gtINDEX74))
(let (?x250 (select gtFIELD__is_active_PVRP__gtAGG____anonstruct_bitsForTID0_5 gtINDEX72))
(flet ($x247 (= (select gtFIELD__sent__gtAGG____anonstruct_D_Work_4_1_ gtINDEX70) bv0[32]))
(let (?x242 (select gtFIELD__is_PPVARP__gtAGG____anonstruct_bitsForTID0_5 gtINDEX69))
(let (?x237 (select gtFIELD__is_PPVARP__gtAGG____anonstruct_bitsForTID0_5 gtINDEX67))
(let (?x232 (select gtFIELD__is_active_PPVARP__gtAGG____anonstruct_bitsForTID0_5 gtINDEX65))
(let (?x224 (select gtFIELD__is_PLRI__gtAGG____anonstruct_bitsForTID0_5 gtINDEX63))
(let (?x219 (select gtFIELD__is_PLRI__gtAGG____anonstruct_bitsForTID0_5 gtINDEX61))
(let (?x214 (select gtFIELD__is_active_PLRI__gtAGG____anonstruct_bitsForTID0_5 gtINDEX59))
(let (?x76 (extract[2:0] bv0[32]))
(let (?x211 (store gtFIELD__is_PAVI__gtAGG____anonstruct_bitsForTID0_5_1_ gtINDEX57 ?x76))
(flet ($x578 (iff constraint38 (= gtFIELD__is_PAVI__gtAGG____anonstruct_bitsForTID0_5_2_ ?x211)))
(let (?x206 (select gtFIELD__is_PAVI__gtAGG____anonstruct_bitsForTID0_5_1_ gtINDEX55))
(let (?x201 (select gtFIELD__is_PAVI__gtAGG____anonstruct_bitsForTID0_5_1_ gtINDEX53))
(let (?x196 (select gtFIELD__is_PAVI__gtAGG____anonstruct_bitsForTID0_5_1_ gtINDEX51))
(let (?x191 (select gtFIELD__is_PAVI__gtAGG____anonstruct_bitsForTID0_5_1_ gtINDEX49))
(let (?x186 (select gtFIELD__is_active_PAVI__gtAGG____anonstruct_bitsForTID0_5 gtINDEX47))
(flet ($x178 (= gtFIELD__sent__gtAGG____anonstruct_D_Work_4_1_ (store gtFIELD__sent__gtAGG____anonstruct_D_Work_4 gtINDEX45 ?x166)))
(flet ($x175 (= (select gtFIELD__sent__gtAGG____anonstruct_D_Work_4 gtINDEX44) bv2[32]))
(flet ($x171 (= (select gtFIELD__sent__gtAGG____anonstruct_D_Work_4 gtINDEX43) bv1[32]))
(flet ($x167 (= (select gtFIELD__sent__gtAGG____anonstruct_D_Work_4 gtINDEX42) ?x166))
(flet ($x161 (= (select gtFIELD__sent__gtAGG____anonstruct_D_Work_4 gtINDEX41) bv9[32]))
(flet ($x156 (= (select gtFIELD__sent__gtAGG____anonstruct_D_Work_4 gtINDEX40) bv4[32]))
(let (?x152 (zero_extend[31] (select gtFIELD__is_Eng__gtAGG____anonstruct_bitsForTID0_5 gtINDEX39)))
(let (?x146 (select gtFIELD__is_active_Eng__gtAGG____anonstruct_bitsForTID0_5 gtINDEX37))
(let (?x140 (select gtFIELD__is_active_PURI__gtAGG____anonstruct_bitsForTID0_5 gtINDEX35))
(flet ($x137 (= (select gtFIELD__sent__gtAGG____anonstruct_D_Work_4 gtINDEX33) bv0[32]))
(let (?x132 (select gtFIELD__is_PVRP__gtAGG____anonstruct_bitsForTID0_5 gtINDEX32))
(let (?x127 (select gtFIELD__is_PVRP__gtAGG____anonstruct_bitsForTID0_5 gtINDEX30))
(let (?x122 (select gtFIELD__is_PVRP__gtAGG____anonstruct_bitsForTID0_5 gtINDEX28))
(let (?x117 (select gtFIELD__is_active_PVRP__gtAGG____anonstruct_bitsForTID0_5 gtINDEX26))
(flet ($x114 (= (select gtFIELD__sent__gtAGG____anonstruct_D_Work_4 gtINDEX24) bv0[32]))
(let (?x109 (select gtFIELD__is_PPVARP__gtAGG____anonstruct_bitsForTID0_5 gtINDEX23))
(let (?x104 (select gtFIELD__is_PPVARP__gtAGG____anonstruct_bitsForTID0_5 gtINDEX21))
(let (?x99 (select gtFIELD__is_active_PPVARP__gtAGG____anonstruct_bitsForTID0_5 gtINDEX19))
(let (?x90 (select gtFIELD__is_PLRI__gtAGG____anonstruct_bitsForTID0_5 gtINDEX17))
(let (?x85 (select gtFIELD__is_PLRI__gtAGG____anonstruct_bitsForTID0_5 gtINDEX15))
(let (?x80 (select gtFIELD__is_active_PLRI__gtAGG____anonstruct_bitsForTID0_5 gtINDEX13))
(let (?x77 (store gtFIELD__is_PAVI__gtAGG____anonstruct_bitsForTID0_5 gtINDEX11 ?x76))
(flet ($x514 (iff constraint6 (= gtFIELD__is_PAVI__gtAGG____anonstruct_bitsForTID0_5_1_ ?x77)))
(let (?x71 (zero_extend[29] (select gtFIELD__is_PAVI__gtAGG____anonstruct_bitsForTID0_5 gtINDEX9)))
(let (?x65 (zero_extend[29] (select gtFIELD__is_PAVI__gtAGG____anonstruct_bitsForTID0_5 gtINDEX7)))
(let (?x59 (zero_extend[29] (select gtFIELD__is_PAVI__gtAGG____anonstruct_bitsForTID0_5 gtINDEX5)))
(let (?x53 (zero_extend[29] (select gtFIELD__is_PAVI__gtAGG____anonstruct_bitsForTID0_5 gtINDEX3)))
(let (?x46 (select gtFIELD__is_active_PAVI__gtAGG____anonstruct_bitsForTID0_5 gtINDEX1))
(flet ($x827 (and (iff constraint0 (not (= sfEvent_ bv8[32]))) (iff constraint1 (not (= (zero_extend[31] ?x46) bv0[32]))) (iff constraint2 (not (= ?x53 bv1[32]))) (iff constraint3 (not (= ?x59 bv2[32]))) (iff constraint4 (not (= ?x65 bv3[32]))) (iff constraint5 (not (= ?x71 bv4[32]))) $x514 (iff constraint7 (not (= (zero_extend[31] ?x80) bv0[32]))) (iff constraint8 (not (= (zero_extend[30] ?x85) bv1[32]))) (iff constraint9 (= (zero_extend[30] ?x90) bv2[32])) (iff constraint10 (not (= sfEvent_ bv4[32]))) (iff constraint11 (not (= sfEvent_ bv5[32]))) (iff constraint12 (not (= (zero_extend[31] ?x99) bv0[32]))) (iff constraint13 (not (= (zero_extend[30] ?x104) bv1[32]))) (iff constraint14 (= (zero_extend[30] ?x109) bv2[32])) (iff constraint15 (not $x114)) (iff constraint16 (not (= (zero_extend[31] ?x117) bv0[32]))) (iff constraint17 (not (= (zero_extend[30] ?x122) bv1[32]))) (iff constraint18 (not (= (zero_extend[30] ?x127) bv2[32]))) (iff constraint19 (= (zero_extend[30] ?x132) bv3[32])) (iff constraint20 (not $x137)) (iff constraint21 (not (not (= (zero_extend[31] ?x140) bv0[32])))) (iff constraint22 (not (= (zero_extend[31] ?x146) bv0[32]))) (iff constraint23 (= ?x152 bv1[32])) (iff constraint24 (not $x156)) (iff constraint25 (not $x161)) (iff constraint26 (not $x167)) (iff constraint27 (not $x171)) (iff constraint28 $x175) (iff constraint29 $x178) (iff constraint30 (= sf_previousEvent_1_ sfEvent_)) (iff constraint31 (= sfEvent__1_ bv3[32])) (iff constraint32 (not (= sfEvent__1_ bv8[32]))) (iff constraint33 (not (= (zero_extend[31] ?x186) bv0[32]))) (iff constraint34 (not (= (zero_extend[29] ?x191) bv1[32]))) (iff constraint35 (not (= (zero_extend[29] ?x196) bv2[32]))) (iff constraint36 (not (= (zero_extend[29] ?x201) bv3[32]))) (iff constraint37 (not (= (zero_extend[29] ?x206) bv4[32]))) $x578 (iff constraint39 (not (= (zero_extend[31] ?x214) bv0[32]))) (iff constraint40 (not (= (zero_extend[30] ?x219) bv1[32]))) (iff constraint41 (= (zero_extend[30] ?x224) bv2[32])) (iff constraint42 (not (= sfEvent__1_ bv4[32]))) (iff constraint43 (not (= sfEvent__1_ bv5[32]))) (iff constraint44 (not (= (zero_extend[31] ?x232) bv0[32]))) (iff constraint45 (not (= (zero_extend[30] ?x237) bv1[32]))) (iff constraint46 (= (zero_extend[30] ?x242) bv2[32])) (iff constraint47 (not $x247)) (iff constraint48 (not (= (zero_extend[31] ?x250) bv0[32]))) (iff constraint49 (not (= (zero_extend[30] ?x255) bv1[32]))) (iff constraint50 (not (= (zero_extend[30] ?x260) bv2[32]))) (iff constraint51 (= (zero_extend[30] ?x265) bv3[32])) (iff constraint52 (not $x270)) (iff constraint53 (not (not (= (zero_extend[31] ?x273) bv0[32])))) (iff constraint54 (not (= (zero_extend[31] ?x279) bv0[32]))) (iff constraint55 (= ?x285 bv1[32])) (iff constraint56 (not $x289)) (iff constraint57 (not $x293)) (iff constraint58 $x297) $x620 (iff constraint60 (= ?x303 bv1[32])) $x624 (iff constraint62 (= sfEvent__2_ sf_previousEvent_1_)) (iff constraint63 (= (zero_extend[31] ?x312) bv1[32])) $x630 (iff constraint65 (= gtINDEX0 gtAGG__rtDWork)) (iff constraint66 $x322) (iff constraint67 (= gtINDEX2 gtAGG__rtDWork)) (iff constraint68 $x326) (iff constraint69 (= gtINDEX4 gtAGG__rtDWork)) (iff constraint70 $x330) (iff constraint71 (= gtINDEX6 gtAGG__rtDWork)) (iff constraint72 $x334) (iff constraint73 (= gtINDEX8 gtAGG__rtDWork)) (iff constraint74 $x338) (iff constraint75 (= gtINDEX10 gtAGG__rtDWork)) (iff constraint76 $x342) (iff constraint77 (= gtINDEX12 gtAGG__rtDWork)) (iff constraint78 $x346) (iff constraint79 (= gtINDEX14 gtAGG__rtDWork)) (iff constraint80 $x350) (iff constraint81 (= gtINDEX16 gtAGG__rtDWork)) (iff constraint82 $x354) (iff constraint83 (= gtINDEX18 gtAGG__rtDWork)) (iff constraint84 $x358) (iff constraint85 (= gtINDEX20 gtAGG__rtDWork)) (iff constraint86 $x362) (iff constraint87 (= gtINDEX22 gtAGG__rtDWork)) (iff constraint88 $x366) (iff constraint89 (= gtINDEX24 gtAGG__rtDWork)) (iff constraint90 (= gtINDEX25 gtAGG__rtDWork)) (iff constraint91 $x371) (iff constraint92 (= gtINDEX27 gtAGG__rtDWork)) (iff constraint93 $x375) (iff constraint94 (= gtINDEX29 gtAGG__rtDWork)) (iff constraint95 $x379) (iff constraint96 (= gtINDEX31 gtAGG__rtDWork)) (iff constraint97 $x383) (iff constraint98 (= gtINDEX33 gtAGG__rtDWork)) (iff constraint99 (= gtINDEX34 gtAGG__rtDWork)) (iff constraint100 $x388) (iff constraint101 (= gtINDEX36 gtAGG__rtDWork)) (iff constraint102 $x392) (iff constraint103 (= gtINDEX38 gtAGG__rtDWork)) (iff constraint104 $x396) (iff constraint105 (= gtINDEX40 gtAGG__rtDWork)) (iff constraint106 (= gtINDEX41 gtAGG__rtDWork)) (iff constraint107 (= gtINDEX42 gtAGG__rtDWork)) (iff constraint108 (= gtINDEX43 gtAGG__rtDWork)) (iff constraint109 (= gtINDEX44 gtAGG__rtDWork)) (iff constraint110 (= gtINDEX45 gtAGG__rtDWork)) (iff constraint111 (= gtINDEX46 gtAGG__rtDWork)) (iff constraint112 $x406) (iff constraint113 (= gtINDEX48 gtAGG__rtDWork)) (iff constraint114 $x410) (iff constraint115 (= gtINDEX50 gtAGG__rtDWork)) (iff constraint116 $x414) (iff constraint117 (= gtINDEX52 gtAGG__rtDWork)) (iff constraint118 $x418) (iff constraint119 (= gtINDEX54 gtAGG__rtDWork)) (iff constraint120 $x422) (iff constraint121 (= gtINDEX56 gtAGG__rtDWork)) (iff constraint122 $x426) (iff constraint123 (= gtINDEX58 gtAGG__rtDWork)) (iff constraint124 $x430) (iff constraint125 (= gtINDEX60 gtAGG__rtDWork)) (iff constraint126 $x434) (iff constraint127 (= gtINDEX62 gtAGG__rtDWork)) (iff constraint128 $x438) (iff constraint129 (= gtINDEX64 gtAGG__rtDWork)) (iff constraint130 $x442) (iff constraint131 (= gtINDEX66 gtAGG__rtDWork)) (iff constraint132 $x446) (iff constraint133 (= gtINDEX68 gtAGG__rtDWork)) (iff constraint134 $x450) (iff constraint135 (= gtINDEX70 gtAGG__rtDWork)) (iff constraint136 (= gtINDEX71 gtAGG__rtDWork)) (iff constraint137 $x455) (iff constraint138 (= gtINDEX73 gtAGG__rtDWork)) (iff constraint139 $x459) (iff constraint140 (= gtINDEX75 gtAGG__rtDWork)) (iff constraint141 $x463) (iff constraint142 (= gtINDEX77 gtAGG__rtDWork)) (iff constraint143 $x467) (iff constraint144 (= gtINDEX79 gtAGG__rtDWork)) (iff constraint145 (= gtINDEX80 gtAGG__rtDWork)) (iff constraint146 $x472) (iff constraint147 (= gtINDEX82 gtAGG__rtDWork)) (iff constraint148 $x476) (iff constraint149 (= gtINDEX84 gtAGG__rtDWork)) (iff constraint150 $x480) (iff constraint151 (= gtINDEX86 gtAGG__rtDWork)) (iff constraint152 (= gtINDEX87 gtAGG__rtDWork)) (iff constraint153 (= gtINDEX88 gtAGG__rtDWork)) (iff constraint154 (= gtINDEX89 gtAGG__rtDWork)) (iff constraint155 (= gtINDEX90 gtAGG__rtDWork)) (iff constraint156 $x488) (iff constraint157 (= gtINDEX92 gtAGG__rtDWork)) (iff constraint158 $x492) (iff constraint159 (= gtINDEX94 gtAGG__rtDWork)) (iff constraint160 $x496) (iff constraint161 (= gtINDEX96 gtAGG__rtDWork)) (iff constraint162 $x500)))
(and $x827 $x828)))))))))))))))))))))))))))))))))))))))))))))))))))))))))))))))))))))))))))))))))))))))))))))))))))))))))))))
)
